\ LP format - for model browsing. Use MPS format to capture full model detail.
Maximize
obj:   x[1] + x[4] + x[5] + x[102] + x[108] + x[106] + x[172] + x[173] + x[110]
   + x[89] + x[83] + x[150] + x[117] + x[22] + x[23] + x[120] + x[153]
   + x[154] + x[156] + x[126] + x[31] + x[2] + x[64] + x[33] + x[93]
   + x[39] + x[24] + x[109] + x[174] + x[45] + x[145] + x[20] + x[151]
   + x[88] + x[49] + x[59] + x[122] + x[94] + x[3] + x[66] + x[27] + x[130]
   + x[40] + x[170] + x[12] + x[13] + x[77] + x[48] + x[114] + x[143]
   + x[68] + x[38] + x[6] + x[9] + x[78] + x[15] + x[18] + x[142] + x[25]
   + x[159] + x[128] + x[99] + x[37] + x[8] + x[107] + x[72] + x[84]
   + x[91] + x[69] + x[129] + x[101] + x[167] + x[28] + x[43] + x[44]
   + x[141] + x[113] + x[116] + x[121] + x[155] + x[95] + x[7] + x[165]
   + x[146] + x[32] + x[161] + x[34] + x[73] + x[14] + x[81] + x[147]
   + x[149] + x[137] + x[57] + x[124] + x[67] + x[103] + x[144] + x[131]
   + x[52] + x[61] + x[10] + x[96] + x[162] + x[169] + x[111] + x[19]
   + x[148] + x[87] + x[26] + x[29] + x[63] + x[11] + x[171] + x[82]
   + x[118] + x[58] + x[30] + x[97] + x[71] + x[76] + x[56] + x[164]
   + x[168] + x[42] + x[139] + x[92] + x[65] + x[46] + x[157] + x[21]
   + x[54] + x[62] + x[115] + x[86] + x[16] + x[160] + x[133] + x[166]
   + x[104] + x[47] + x[53] + x[90] + x[125] + x[127] + x[17] + x[135]
   + x[50] + x[158] + x[98] + x[70] + x[35] + x[140] + x[80] + x[55]
   + x[112] + x[123] + x[134] + x[60] + x[105] + x[136] + x[85] + x[79]
   + x[36] + x[41] + x[51] + x[138] + x[175] + x[75] + x[119] + x[74]
   + x[100] + x[152] + x[132] + x[163]
Subject To
 nod1: 13 x[1] + x[4] + x[5] + x[102] + x[108] + x[106] + x[172] + x[173]
   + x[110] + x[89] + x[83] + x[150] + x[117] + x[22] + x[23] + x[120]
   + x[153] + x[154] + x[156] + x[126] + x[31] <= 13
 nod4: x[1] + 9 x[4] + x[83] + x[153] + x[68] + x[38] + x[6] + x[9] + x[78]
   + x[15] + x[18] + x[142] + x[25] + x[159] <= 9
 nod5: x[1] + 12 x[5] + x[102] + x[22] + x[2] + x[77] + x[48] + x[143]
   + x[25] + x[128] + x[99] + x[37] + x[8] + x[107] + x[72] + x[84] + x[91]
   + x[69] <= 12
 nod102: x[1] + x[5] + 11 x[102] + x[64] + x[18] + x[25] + x[128] + x[91]
   + x[101] + x[167] + x[113] + x[7] + x[96] + x[29] + x[168] + x[92]
   + x[166] + x[104] + x[17] + x[105] <= 11
 nod108: x[1] + 13 x[108] + x[173] + x[89] + x[126] + x[170] + x[77]
   + x[114] + x[9] + x[78] + x[18] + x[72] + x[116] + x[146] + x[56]
   + x[160] + x[125] + x[135] + x[50] + x[105] + x[85] + x[79] <= 13
 nod106: x[1] + 9 x[106] + x[120] + x[154] + x[33] + x[45] + x[27] + x[72]
   + x[7] + x[11] + x[127] + x[17] + x[70] + x[119] <= 9
 nod172: x[1] + 10 x[172] + x[31] + x[59] + x[13] + x[128] + x[28] + x[81]
   + x[131] + x[10] + x[26] + x[50] + x[112] + x[138] + x[119] <= 10
 nod173: x[1] + x[108] + 7 x[173] + x[23] + x[2] + x[145] + x[49] + x[38]
   + x[67] + x[30] + x[36] <= 7
 nod110: x[1] + 9 x[110] + x[59] + x[40] + x[143] + x[38] + x[107] + x[84]
   + x[91] + x[121] + x[63] + x[160] + x[138] + x[74] <= 9
 nod89: x[1] + x[108] + 14 x[89] + x[150] + x[156] + x[145] + x[48]
   + x[128] + x[101] + x[43] + x[146] + x[67] + x[162] + x[63] + x[11]
   + x[30] + x[56] + x[42] + x[92] + x[62] + x[160] + x[166] + x[140]
   + x[123] + x[60] + x[85] + x[163] <= 14
 nod83: x[1] + x[4] + 11 x[83] + x[145] + x[99] + x[8] + x[43] + x[149]
   + x[124] + x[144] + x[111] + x[58] + x[139] + x[47] + x[127] + x[140]
   + x[60] + x[136] <= 11
 nod150: x[1] + x[89] + 12 x[150] + x[45] + x[48] + x[159] + x[8] + x[7]
   + x[146] + x[57] + x[118] + x[56] + x[166] + x[104] + x[47] + x[140]
   + x[123] + x[60] + x[105] + x[136] + x[74] + x[152] <= 12
 nod117: x[1] + 11 x[117] + x[170] + x[128] + x[167] + x[76] + x[125]
   + x[35] + x[55] + x[112] + x[60] + x[105] + x[79] + x[51] <= 11
 nod22: x[1] + x[5] + 10 x[22] + x[12] + x[38] + x[34] + x[81] + x[67]
   + x[131] + x[96] + x[26] + x[29] + x[56] + x[104] + x[70] + x[140]
   + x[123] + x[136] <= 10
 nod23: x[1] + x[173] + 11 x[23] + x[66] + x[130] + x[107] + x[43] + x[44]
   + x[141] + x[165] + x[171] + x[42] + x[92] + x[46] + x[62] + x[158]
   + x[70] + x[112] <= 11
 nod120: x[1] + x[106] + 11 x[120] + x[33] + x[109] + x[145] + x[159]
   + x[128] + x[69] + x[121] + x[165] + x[81] + x[149] + x[26] + x[29]
   + x[65] + x[16] + x[47] + x[55] <= 11
 nod153: x[1] + x[4] + 12 x[153] + x[126] + x[38] + x[25] + x[91] + x[121]
   + x[95] + x[52] + x[169] + x[19] + x[29] + x[46] + x[16] + x[133]
   + x[104] + x[17] + x[75] + x[74] <= 12
 nod154: x[1] + x[106] + 13 x[154] + x[130] + x[143] + x[28] + x[141]
   + x[113] + x[146] + x[14] + x[147] + x[131] + x[162] + x[19] + x[97]
   + x[168] + x[92] + x[21] + x[115] + x[80] + x[136] + x[51] + x[132]
   <= 13
 nod156: x[1] + x[89] + 10 x[156] + x[64] + x[33] + x[145] + x[122] + x[6]
   + x[99] + x[28] + x[47] + x[90] + x[60] + x[79] + x[36] + x[152] <= 10
 nod126: x[1] + x[108] + x[153] + 9 x[126] + x[20] + x[72] + x[28] + x[43]
   + x[116] + x[165] + x[67] + x[97] + x[46] + x[21] + x[133] + x[125]
   + x[135] + x[50] + x[158] + x[70] + x[75] <= 9
 nod31: x[1] + x[172] + 15 x[31] + x[20] + x[68] + x[78] + x[18] + x[8]
   + x[72] + x[91] + x[69] + x[101] + x[95] + x[7] + x[111] + x[76]
   + x[164] + x[139] + x[157] + x[16] + x[41] + x[138] <= 15
 nod2: x[5] + x[173] + 12 x[2] + x[64] + x[33] + x[93] + x[39] + x[24]
   + x[109] + x[174] + x[45] + x[145] + x[20] + x[151] + x[88] + x[49]
   + x[59] + x[122] + x[94] <= 12
 nod64: x[102] + x[156] + x[2] + 12 x[64] + x[151] + x[59] + x[77] + x[15]
   + x[101] + x[167] + x[149] + x[96] + x[26] + x[29] + x[168] + x[86]
   + x[35] + x[123] + x[136] + x[74] <= 12
 nod33: x[106] + x[120] + x[156] + x[2] + 14 x[33] + x[59] + x[77] + x[107]
   + x[84] + x[167] + x[44] + x[147] + x[144] + x[131] + x[58] + x[42]
   + x[65] + x[46] + x[157] + x[158] + x[98] + x[140] + x[60] + x[51]
   <= 14
 nod93: x[2] + 11 x[93] + x[174] + x[145] + x[94] + x[114] + x[8] + x[167]
   + x[32] + x[161] + x[29] + x[63] + x[82] + x[92] + x[86] + x[98]
   + x[136] + x[36] <= 11
 nod39: x[2] + 9 x[39] + x[27] + x[68] + x[99] + x[161] + x[57] + x[115]
   + x[158] + x[55] + x[136] + x[138] <= 9
 nod24: x[2] + 9 x[24] + x[27] + x[68] + x[84] + x[95] + x[146] + x[32]
   + x[71] + x[70] + x[112] + x[105] + x[85] <= 9
 nod109: x[120] + x[2] + 11 x[109] + x[15] + x[142] + x[72] + x[129]
   + x[165] + x[34] + x[73] + x[111] + x[19] + x[118] + x[76] + x[46]
   + x[54] + x[35] + x[55] + x[112] + x[132] <= 11
 nod174: x[2] + x[93] + 10 x[174] + x[20] + x[13] + x[38] + x[159] + x[141]
   + x[34] + x[50] + x[75] + x[119] + x[74] <= 10
 nod45: x[106] + x[150] + x[2] + 10 x[45] + x[145] + x[49] + x[59] + x[6]
   + x[18] + x[99] + x[37] + x[113] + x[121] + x[155] + x[32] + x[52]
   + x[171] + x[90] + x[80] + x[138] <= 10
 nod145: x[173] + x[89] + x[83] + x[120] + x[156] + x[2] + x[93] + x[45]
   + 11 x[145] + x[159] + x[91] + x[32] + x[96] + x[29] + x[171] + x[56]
   + x[62] + x[115] + x[125] <= 11
 nod20: x[126] + x[31] + x[2] + x[174] + 11 x[20] + x[151] + x[88] + x[77]
   + x[142] + x[72] + x[44] + x[165] + x[67] + x[96] + x[86] + x[90]
   + x[135] + x[35] + x[112] + x[123] <= 11
 nod151: x[2] + x[64] + x[20] + 12 x[151] + x[143] + x[68] + x[142] + x[25]
   + x[128] + x[37] + x[155] + x[81] + x[61] + x[111] + x[87] + x[11]
   + x[58] + x[21] + x[140] + x[112] + x[105] + x[152] <= 12
 nod88: x[2] + x[20] + 8 x[88] + x[59] + x[72] + x[146] + x[161] + x[10]
   + x[63] + x[70] + x[140] + x[80] + x[163] <= 8
 nod49: x[173] + x[2] + x[45] + 10 x[49] + x[25] + x[91] + x[69] + x[121]
   + x[124] + x[96] + x[63] + x[171] + x[71] + x[54] + x[47] + x[98]
   + x[85] + x[36] + x[132] <= 10
 nod59: x[172] + x[110] + x[2] + x[64] + x[33] + x[45] + x[88] + 12 x[59]
   + x[122] + x[84] + x[101] + x[167] + x[103] + x[131] + x[96] + x[168]
   + x[157] + x[86] + x[53] + x[135] + x[136] <= 12
 nod122: x[156] + x[2] + x[59] + 11 x[122] + x[114] + x[72] + x[101]
   + x[43] + x[116] + x[7] + x[14] + x[149] + x[67] + x[90] + x[135]
   + x[55] + x[112] + x[36] + x[75] + x[74] <= 11
 nod94: x[2] + x[93] + 11 x[94] + x[68] + x[6] + x[101] + x[34] + x[52]
   + x[61] + x[111] + x[56] + x[139] + x[92] + x[46] + x[21] + x[54]
   + x[17] + x[135] + x[70] + x[35] + x[163] <= 11
 nod3: 9 x[3] + x[66] + x[27] + x[130] + x[40] + x[170] + x[12] + x[13]
   + x[77] + x[48] + x[114] + x[143] <= 9
 nod66: x[23] + x[3] + 10 x[66] + x[84] + x[91] + x[43] + x[121] + x[155]
   + x[32] + x[147] + x[82] + x[92] + x[21] + x[16] + x[104] + x[79]
   + x[100] <= 10
 nod27: x[106] + x[39] + x[24] + x[3] + 13 x[27] + x[12] + x[38] + x[78]
   + x[142] + x[159] + x[107] + x[67] + x[144] + x[52] + x[169] + x[58]
   + x[139] + x[140] + x[60] + x[136] + x[79] <= 13
 nod130: x[23] + x[154] + x[3] + 12 x[130] + x[68] + x[69] + x[116] + x[7]
   + x[149] + x[103] + x[169] + x[62] + x[115] + x[90] + x[17] + x[70]
   + x[134] + x[85] <= 12
 nod40: x[110] + x[3] + 14 x[40] + x[25] + x[128] + x[28] + x[113] + x[7]
   + x[14] + x[52] + x[11] + x[30] + x[76] + x[42] + x[157] + x[133]
   + x[90] + x[127] + x[80] + x[112] + x[105] + x[74] + x[100] <= 14
 nod170: x[108] + x[117] + x[3] + 10 x[170] + x[48] + x[159] + x[37]
   + x[91] + x[124] + x[131] + x[10] + x[118] + x[168] + x[62] + x[104]
   + x[112] + x[136] + x[79] <= 10
 nod12: x[22] + x[3] + x[27] + 8 x[12] + x[43] + x[7] + x[73] + x[144]
   + x[10] + x[111] + x[97] + x[71] + x[76] + x[56] <= 8
 nod13: x[172] + x[174] + x[3] + 12 x[13] + x[37] + x[43] + x[161] + x[14]
   + x[169] + x[87] + x[63] + x[164] + x[168] + x[42] + x[139] + x[92]
   <= 12
 nod77: x[5] + x[108] + x[64] + x[33] + x[20] + x[3] + 13 x[77] + x[25]
   + x[128] + x[116] + x[155] + x[7] + x[165] + x[32] + x[63] + x[82]
   + x[118] + x[50] + x[70] + x[41] + x[163] <= 13
 nod48: x[5] + x[89] + x[150] + x[3] + x[170] + 9 x[48] + x[6] + x[8]
   + x[91] + x[129] + x[95] + x[14] + x[124] + x[67] + x[171] + x[71]
   + x[115] + x[104] <= 9
 nod114: x[108] + x[93] + x[122] + x[3] + 11 x[114] + x[8] + x[141]
   + x[121] + x[161] + x[162] + x[160] + x[166] + x[47] + x[135] + x[158]
   + x[35] + x[85] + x[75] <= 11
 nod143: x[5] + x[110] + x[154] + x[151] + x[3] + 9 x[143] + x[25] + x[161]
   + x[34] + x[103] + x[169] + x[58] + x[160] + x[85] + x[152] + x[132]
   <= 9
 nod68: x[4] + x[31] + x[39] + x[24] + x[151] + x[94] + x[130] + 14 x[68]
   + x[69] + x[43] + x[44] + x[141] + x[34] + x[52] + x[21] + x[166]
   + x[136] + x[79] + x[163] <= 14
 nod38: x[4] + x[173] + x[110] + x[22] + x[153] + x[174] + x[27] + 12 x[38]
   + x[6] + x[18] + x[107] + x[101] + x[28] + x[116] + x[144] + x[97]
   + x[157] + x[115] + x[86] + x[140] + x[123] <= 12
 nod6: x[4] + x[156] + x[45] + x[94] + x[48] + x[38] + 9 x[6] + x[129]
   + x[101] + x[167] + x[28] + x[43] + x[44] + x[141] + x[113] + x[116]
   + x[121] + x[155] + x[95] <= 9
 nod9: x[4] + x[108] + 9 x[9] + x[78] + x[84] + x[28] + x[113] + x[149]
   + x[67] + x[103] + x[144] + x[131] + x[52] + x[61] <= 9
 nod78: x[4] + x[108] + x[31] + x[27] + x[9] + 10 x[78] + x[15] + x[73]
   + x[61] + x[162] + x[169] + x[111] + x[76] + x[54] + x[133] + x[17]
   + x[98] + x[79] + x[163] <= 10
 nod15: x[4] + x[64] + x[109] + x[78] + 8 x[15] + x[141] + x[57] + x[19]
   + x[118] + x[76] + x[139] + x[115] + x[86] <= 8
 nod18: x[4] + x[102] + x[108] + x[31] + x[45] + x[38] + 11 x[18] + x[129]
   + x[7] + x[161] + x[81] + x[137] + x[19] + x[171] + x[46] + x[166]
   + x[90] + x[98] + x[70] <= 11
 nod142: x[4] + x[109] + x[20] + x[151] + x[27] + 11 x[142] + x[99] + x[72]
   + x[103] + x[21] + x[98] + x[134] + x[75] + x[119] + x[74] <= 11
 nod25: x[4] + x[5] + x[102] + x[153] + x[151] + x[49] + x[40] + x[77]
   + x[143] + 12 x[25] + x[128] + x[8] + x[107] + x[44] + x[121] + x[161]
   + x[147] + x[169] + x[26] + x[139] + x[92] + x[50] + x[79] <= 12
 nod159: x[4] + x[150] + x[120] + x[174] + x[145] + x[27] + x[170]
   + 11 x[159] + x[37] + x[44] + x[116] + x[7] + x[147] + x[111] + x[71]
   + x[90] + x[105] + x[100] + x[132] <= 11
 nod128: x[5] + x[102] + x[172] + x[89] + x[117] + x[120] + x[151] + x[40]
   + x[77] + x[25] + 16 x[128] + x[99] + x[37] + x[107] + x[44] + x[161]
   + x[169] + x[26] + x[29] + x[71] + x[164] + x[139] + x[47] + x[134]
   <= 16
 nod99: x[5] + x[83] + x[156] + x[39] + x[45] + x[142] + x[128] + 11 x[99]
   + x[155] + x[14] + x[147] + x[11] + x[82] + x[42] + x[54] + x[80]
   + x[132] <= 11
 nod37: x[5] + x[45] + x[151] + x[170] + x[13] + x[159] + x[128] + 11 x[37]
   + x[43] + x[61] + x[58] + x[56] + x[164] + x[157] + x[133] + x[166]
   + x[158] + x[138] + x[119] <= 11
 nod8: x[5] + x[83] + x[150] + x[31] + x[93] + x[48] + x[114] + x[25]
   + 14 x[8] + x[116] + x[32] + x[161] + x[34] + x[73] + x[14] + x[81]
   + x[147] + x[149] + x[137] + x[57] + x[124] <= 14
 nod107: x[5] + x[110] + x[23] + x[33] + x[27] + x[38] + x[25] + x[128]
   + 10 x[107] + x[32] + x[162] + x[82] + x[118] + x[139] + x[133] + x[50]
   + x[175] <= 10
 nod72: x[5] + x[108] + x[106] + x[126] + x[31] + x[109] + x[20] + x[88]
   + x[122] + x[142] + 16 x[72] + x[141] + x[7] + x[165] + x[124] + x[148]
   + x[29] + x[171] + x[97] + x[42] + x[21] + x[90] + x[123] + x[136]
   + x[152] + x[132] <= 16
 nod84: x[5] + x[110] + x[33] + x[24] + x[59] + x[66] + x[9] + 11 x[84]
   + x[28] + x[43] + x[32] + x[111] + x[63] + x[164] + x[104] + x[90]
   + x[127] + x[50] + x[140] + x[163] <= 11
 nod91: x[5] + x[102] + x[110] + x[153] + x[31] + x[145] + x[49] + x[66]
   + x[170] + x[48] + 12 x[91] + x[69] + x[28] + x[32] + x[161] + x[96]
   + x[171] + x[46] + x[62] + x[134] + x[105] <= 12
 nod69: x[5] + x[120] + x[31] + x[49] + x[130] + x[68] + x[91] + 11 x[69]
   + x[43] + x[161] + x[137] + x[103] + x[111] + x[92] + x[157] + x[133]
   + x[17] + x[98] <= 11
 nod129: x[109] + x[48] + x[6] + x[18] + 9 x[129] + x[141] + x[147]
   + x[124] + x[131] + x[42] + x[80] + x[75] + x[163] <= 9
 nod101: x[102] + x[89] + x[31] + x[64] + x[59] + x[122] + x[94] + x[38]
   + x[6] + 10 x[101] + x[28] + x[7] + x[124] + x[169] + x[26] + x[11]
   + x[92] + x[60] + x[136] <= 10
 nod167: x[102] + x[117] + x[64] + x[33] + x[93] + x[59] + x[6] + 11 x[167]
   + x[28] + x[44] + x[155] + x[103] + x[19] + x[71] + x[168] + x[139]
   + x[21] + x[54] + x[127] + x[100] <= 11
 nod28: x[172] + x[154] + x[156] + x[126] + x[40] + x[38] + x[6] + x[9]
   + x[84] + x[91] + x[101] + x[167] + 12 x[28] + x[116] + x[165] + x[34]
   + x[147] + x[124] + x[52] + x[96] + x[139] + x[123] + x[138] + x[175]
   <= 12
 nod43: x[89] + x[83] + x[23] + x[126] + x[122] + x[66] + x[12] + x[13]
   + x[68] + x[6] + x[37] + x[84] + x[69] + 13 x[43] + x[116] + x[144]
   + x[61] + x[10] + x[26] + x[21] + x[54] + x[62] + x[160] + x[36] <= 13
 nod44: x[23] + x[33] + x[20] + x[68] + x[6] + x[25] + x[159] + x[128]
   + x[167] + 11 x[44] + x[95] + x[147] + x[10] + x[148] + x[42] + x[46]
   + x[17] + x[140] + x[112] + x[123] + x[105] <= 11
 nod141: x[23] + x[154] + x[174] + x[114] + x[68] + x[6] + x[15] + x[72]
   + x[129] + 14 x[141] + x[113] + x[73] + x[67] + x[10] + x[118] + x[71]
   + x[127] + x[50] + x[134] + x[132] <= 14
 nod113: x[102] + x[154] + x[45] + x[40] + x[6] + x[9] + x[141] + 10 x[113]
   + x[121] + x[32] + x[137] + x[115] + x[80] + x[136] + x[175] + x[119]
   <= 10
 nod116: x[108] + x[126] + x[122] + x[130] + x[77] + x[38] + x[6] + x[159]
   + x[8] + x[28] + x[43] + 8 x[116] + x[103] + x[61] + x[118] + x[125]
   + x[70] <= 8
 nod121: x[110] + x[120] + x[153] + x[45] + x[49] + x[66] + x[114] + x[6]
   + x[25] + x[113] + 14 x[121] + x[34] + x[57] + x[67] + x[144] + x[97]
   + x[164] + x[42] + x[54] + x[62] + x[133] + x[47] + x[41] <= 14
 nod155: x[45] + x[151] + x[66] + x[77] + x[6] + x[99] + x[167] + 12 x[155]
   + x[124] + x[52] + x[111] + x[82] + x[118] + x[65] + x[21] + x[54]
   + x[86] + x[90] + x[17] + x[136] + x[74] + x[132] <= 12
 nod95: x[153] + x[31] + x[24] + x[48] + x[6] + x[44] + 11 x[95] + x[14]
   + x[87] + x[82] + x[76] + x[54] + x[160] + x[105] + x[136] + x[163]
   <= 11
 nod7: x[102] + x[106] + x[150] + x[31] + x[122] + x[130] + x[40] + x[12]
   + x[77] + x[18] + x[159] + x[72] + x[101] + 10 x[7] + x[165] + x[146]
   <= 10
 nod165: x[23] + x[120] + x[126] + x[109] + x[20] + x[77] + x[72] + x[28]
   + x[7] + 15 x[165] + x[161] + x[34] + x[137] + x[67] + x[103] + x[111]
   + x[11] + x[171] + x[118] + x[30] + x[46] + x[54] + x[160] + x[166]
   + x[125] + x[17] + x[135] + x[79] + x[41] + x[74] <= 15
 nod146: x[108] + x[89] + x[150] + x[154] + x[24] + x[88] + x[7]
   + 14 x[146] + x[73] + x[137] + x[96] + x[11] + x[104] + x[47] + x[90]
   + x[60] + x[138] + x[175] + x[119] + x[74] <= 14
 nod32: x[93] + x[24] + x[45] + x[145] + x[66] + x[77] + x[8] + x[107]
   + x[84] + x[91] + x[113] + 13 x[32] + x[61] + x[169] + x[111] + x[139]
   + x[157] + x[133] + x[104] + x[17] + x[105] + x[138] <= 13
 nod161: x[93] + x[39] + x[88] + x[13] + x[114] + x[143] + x[18] + x[25]
   + x[128] + x[8] + x[91] + x[69] + x[165] + 11 x[161] + x[14] + x[149]
   + x[52] + x[29] + x[171] + x[30] <= 11
 nod34: x[22] + x[109] + x[174] + x[94] + x[143] + x[68] + x[8] + x[28]
   + x[121] + x[165] + 11 x[34] + x[111] + x[171] + x[56] + x[139] + x[62]
   + x[47] + x[90] + x[17] + x[50] + x[55] + x[85] <= 11
 nod73: x[109] + x[12] + x[78] + x[8] + x[141] + x[146] + 9 x[73] + x[61]
   + x[46] + x[90] + x[105] + x[85] + x[75] + x[132] <= 9
 nod14: x[154] + x[122] + x[40] + x[13] + x[48] + x[99] + x[8] + x[95]
   + x[161] + 9 x[14] + x[65] + x[46] + x[157] + x[21] + x[54] + x[62]
   <= 9
 nod81: x[172] + x[22] + x[120] + x[151] + x[18] + x[8] + 10 x[81] + x[67]
   + x[144] + x[61] + x[118] + x[21] + x[16] + x[127] + x[70] + x[36]
   + x[51] + x[138] + x[75] <= 10
 nod147: x[154] + x[33] + x[66] + x[25] + x[159] + x[99] + x[8] + x[129]
   + x[28] + x[44] + 9 x[147] + x[162] + x[11] + x[139] + x[80] + x[134]
   + x[105] + x[79] <= 9
 nod149: x[83] + x[120] + x[64] + x[122] + x[130] + x[9] + x[8] + x[161]
   + 15 x[149] + x[67] + x[118] + x[92] + x[46] + x[157] + x[54] + x[160]
   + x[53] + x[127] + x[158] + x[80] + x[163] <= 15
 nod137: x[18] + x[8] + x[69] + x[113] + x[165] + x[146] + 8 x[137] + x[46]
   + x[125] + x[135] + x[80] + x[134] + x[136] + x[41] + x[119] <= 8
 nod57: x[150] + x[39] + x[15] + x[8] + x[121] + 10 x[57] + x[46] + x[47]
   + x[135] + x[98] + x[70] + x[123] + x[36] + x[138] <= 10
 nod124: x[83] + x[49] + x[170] + x[48] + x[8] + x[72] + x[129] + x[101]
   + x[28] + x[155] + 12 x[124] + x[67] + x[103] + x[144] + x[10] + x[96]
   + x[169] + x[29] + x[125] + x[127] + x[79] + x[74] <= 12
 nod67: x[173] + x[89] + x[22] + x[126] + x[20] + x[122] + x[27] + x[48]
   + x[9] + x[141] + x[121] + x[165] + x[81] + x[149] + x[124] + 12 x[67]
   + x[144] + x[171] + x[47] + x[90] + x[135] + x[41] + x[138] <= 12
 nod103: x[59] + x[130] + x[143] + x[9] + x[142] + x[69] + x[167] + x[116]
   + x[165] + x[124] + 10 x[103] + x[136] + x[175] <= 10
 nod144: x[83] + x[33] + x[27] + x[12] + x[38] + x[9] + x[43] + x[121]
   + x[81] + x[124] + x[67] + 12 x[144] + x[162] + x[26] + x[63] + x[97]
   + x[56] + x[164] + x[46] + x[125] + x[140] + x[51] + x[138] <= 12
 nod131: x[172] + x[22] + x[154] + x[33] + x[59] + x[170] + x[9] + x[129]
   + 10 x[131] + x[29] + x[58] + x[168] + x[62] + x[90] + x[127] + x[85]
   + x[138] <= 10
 nod52: x[153] + x[45] + x[94] + x[27] + x[40] + x[68] + x[9] + x[28]
   + x[155] + x[161] + 11 x[52] + x[61] + x[10] + x[169] + x[63] + x[11]
   + x[82] + x[56] + x[90] + x[127] + x[105] <= 11
 nod61: x[151] + x[94] + x[9] + x[78] + x[37] + x[43] + x[116] + x[32]
   + x[73] + x[81] + x[52] + 10 x[61] + x[82] + x[118] + x[97] + x[21]
   + x[104] + x[138] <= 10
 nod10: x[172] + x[88] + x[170] + x[12] + x[43] + x[44] + x[141] + x[124]
   + x[52] + 12 x[10] + x[96] + x[162] + x[169] + x[111] + x[19] + x[148]
   + x[87] + x[26] + x[29] + x[63] <= 12
 nod96: x[102] + x[22] + x[64] + x[145] + x[20] + x[49] + x[59] + x[91]
   + x[28] + x[146] + x[124] + x[10] + 12 x[96] + x[26] + x[58] + x[166]
   + x[47] + x[125] + x[80] + x[112] + x[41] + x[75] <= 12
 nod162: x[89] + x[154] + x[114] + x[78] + x[107] + x[147] + x[144] + x[10]
   + 9 x[162] + x[111] + x[11] + x[139] + x[16] + x[133] + x[100] <= 9
 nod169: x[153] + x[27] + x[130] + x[13] + x[143] + x[78] + x[25] + x[128]
   + x[101] + x[32] + x[124] + x[52] + x[10] + 14 x[169] + x[63] + x[11]
   + x[56] + x[86] + x[50] + x[98] + x[35] + x[79] <= 14
 nod111: x[83] + x[31] + x[109] + x[151] + x[94] + x[12] + x[78] + x[159]
   + x[84] + x[69] + x[155] + x[165] + x[32] + x[34] + x[10] + x[162]
   + 15 x[111] + x[87] + x[63] + x[171] + x[118] + x[76] + x[56] + x[42]
   + x[54] + x[90] + x[125] + x[98] + x[112] + x[136] + x[85] <= 15
 nod19: x[153] + x[154] + x[109] + x[15] + x[18] + x[167] + x[10]
   + 11 x[19] + x[58] + x[21] + x[90] + x[135] + x[35] + x[140] + x[80]
   + x[55] <= 11
 nod148: x[72] + x[44] + x[10] + 7 x[148] + x[65] + x[115] + x[90] + x[125]
   + x[112] + x[134] + x[75] + x[119] <= 7
 nod87: x[151] + x[13] + x[95] + x[10] + x[111] + 9 x[87] + x[63] + x[118]
   + x[71] + x[157] + x[135] + x[60] + x[36] <= 9
 nod26: x[172] + x[22] + x[120] + x[64] + x[25] + x[128] + x[101] + x[43]
   + x[144] + x[10] + x[96] + 11 x[26] + x[104] + x[53] + x[135] + x[140]
   + x[36] + x[41] + x[51] <= 11
 nod29: x[102] + x[22] + x[120] + x[153] + x[64] + x[93] + x[145] + x[128]
   + x[72] + x[161] + x[124] + x[131] + x[10] + 13 x[29] + x[118] + x[58]
   + x[157] + x[127] + x[80] + x[112] + x[41] + x[75] <= 13
 nod63: x[110] + x[89] + x[93] + x[88] + x[49] + x[13] + x[77] + x[84]
   + x[144] + x[52] + x[10] + x[169] + x[111] + x[87] + 13 x[63] + x[62]
   + x[50] + x[158] + x[98] + x[140] + x[55] + x[112] + x[105] + x[100]
   <= 13
 nod11: x[106] + x[89] + x[151] + x[40] + x[99] + x[101] + x[165] + x[146]
   + x[147] + x[52] + x[162] + x[169] + 10 x[11] + x[171] + x[82] + x[118]
   + x[58] + x[30] <= 10
 nod171: x[23] + x[45] + x[145] + x[49] + x[48] + x[18] + x[72] + x[91]
   + x[165] + x[161] + x[34] + x[67] + x[111] + x[11] + 12 x[171] + x[71]
   + x[76] + x[139] + x[54] + x[70] + x[36] + x[41] + x[75] + x[119] <= 12
 nod82: x[93] + x[66] + x[77] + x[99] + x[107] + x[155] + x[95] + x[52]
   + x[61] + x[11] + 9 x[82] + x[164] + x[158] + x[175] <= 9
 nod118: x[150] + x[109] + x[170] + x[77] + x[15] + x[107] + x[141]
   + x[116] + x[155] + x[165] + x[81] + x[149] + x[61] + x[111] + x[87]
   + x[29] + x[11] + 12 x[118] + x[71] + x[160] <= 12
 nod58: x[83] + x[33] + x[151] + x[27] + x[143] + x[37] + x[131] + x[96]
   + x[19] + x[29] + x[11] + 9 x[58] + x[30] + x[21] + x[41] + x[75]
   + x[152] <= 9
 nod30: x[173] + x[89] + x[40] + x[165] + x[161] + x[11] + x[58] + 6 x[30]
   + x[98] + x[36] <= 6
 nod97: x[154] + x[126] + x[12] + x[38] + x[72] + x[121] + x[144] + x[61]
   + 9 x[97] + x[115] + x[160] + x[55] + x[136] + x[79] + x[100] <= 9
 nod71: x[24] + x[49] + x[12] + x[48] + x[159] + x[128] + x[167] + x[141]
   + x[87] + x[171] + x[118] + 10 x[71] + x[92] + x[50] + x[98] + x[112]
   <= 10
 nod76: x[117] + x[31] + x[109] + x[40] + x[12] + x[78] + x[15] + x[95]
   + x[111] + x[171] + 9 x[76] + x[16] + x[17] + x[70] + x[112] + x[79]
   + x[36] + x[74] + x[163] <= 9
 nod56: x[108] + x[89] + x[150] + x[22] + x[145] + x[94] + x[12] + x[37]
   + x[34] + x[144] + x[52] + x[169] + x[111] + 12 x[56] + x[168] + x[42]
   + x[139] + x[65] + x[21] + x[54] + x[138] <= 12
 nod164: x[31] + x[13] + x[128] + x[37] + x[84] + x[121] + x[144] + x[82]
   + 9 x[164] + x[90] + x[127] + x[17] + x[60] + x[79] <= 9
 nod168: x[102] + x[154] + x[64] + x[59] + x[170] + x[13] + x[167] + x[131]
   + x[56] + 10 x[168] + x[133] + x[104] + x[127] + x[17] + x[140] + x[119]
   <= 10
 nod42: x[89] + x[23] + x[33] + x[40] + x[13] + x[99] + x[72] + x[129]
   + x[44] + x[121] + x[111] + x[56] + 11 x[42] + x[65] + x[140] + x[105]
   + x[51] + x[175] <= 11
 nod139: x[83] + x[31] + x[94] + x[27] + x[13] + x[15] + x[25] + x[128]
   + x[107] + x[167] + x[28] + x[32] + x[34] + x[147] + x[162] + x[171]
   + x[56] + 12 x[139] + x[123] + x[100] <= 12
 nod92: x[102] + x[89] + x[23] + x[154] + x[93] + x[94] + x[66] + x[13]
   + x[25] + x[69] + x[101] + x[149] + x[71] + 11 x[92] + x[157] + x[125]
   + x[100] + x[163] <= 11
 nod65: x[120] + x[33] + x[155] + x[14] + x[148] + x[56] + x[42] + 7 x[65]
   + x[62] + x[53] + x[55] + x[112] + x[134] + x[51] <= 7
 nod46: x[23] + x[153] + x[126] + x[33] + x[109] + x[94] + x[18] + x[91]
   + x[44] + x[165] + x[73] + x[14] + x[149] + x[137] + x[57] + x[144]
   + 11 x[46] + x[152] <= 11
 nod157: x[31] + x[33] + x[59] + x[40] + x[38] + x[37] + x[69] + x[32]
   + x[14] + x[149] + x[87] + x[29] + x[92] + 10 x[157] + x[136] <= 10
 nod21: x[154] + x[126] + x[151] + x[94] + x[66] + x[68] + x[142] + x[72]
   + x[167] + x[43] + x[155] + x[14] + x[81] + x[61] + x[19] + x[58]
   + x[56] + 15 x[21] + x[86] + x[133] + x[53] + x[17] + x[55] + x[134]
   + x[60] + x[105] <= 15
 nod54: x[109] + x[49] + x[94] + x[78] + x[99] + x[167] + x[43] + x[121]
   + x[155] + x[95] + x[165] + x[14] + x[149] + x[111] + x[171] + x[56]
   + 13 x[54] + x[104] + x[47] + x[70] + x[51] + x[138] <= 13
 nod62: x[89] + x[23] + x[145] + x[130] + x[170] + x[91] + x[43] + x[121]
   + x[34] + x[14] + x[131] + x[63] + x[65] + 11 x[62] + x[86] + x[47]
   + x[135] + x[35] + x[36] + x[74] + x[163] <= 11
 nod115: x[154] + x[39] + x[145] + x[130] + x[48] + x[38] + x[15] + x[113]
   + x[148] + x[97] + 10 x[115] + x[50] + x[140] + x[75] + x[74] <= 10
 nod86: x[64] + x[93] + x[20] + x[59] + x[38] + x[15] + x[155] + x[169]
   + x[21] + x[62] + 9 x[86] + x[125] + x[74] <= 9
 nod16: x[120] + x[153] + x[31] + x[66] + x[81] + x[162] + x[76] + 11 x[16]
   + x[160] + x[133] + x[166] + x[104] + x[47] + x[53] + x[90] + x[125]
   + x[127] <= 11
 nod160: x[108] + x[110] + x[89] + x[114] + x[143] + x[43] + x[95] + x[165]
   + x[149] + x[118] + x[97] + x[16] + 8 x[160] <= 8
 nod133: x[153] + x[126] + x[40] + x[78] + x[37] + x[107] + x[69] + x[121]
   + x[32] + x[162] + x[168] + x[21] + x[16] + 11 x[133] + x[158] + x[98]
   + x[112] + x[175] + x[75] <= 11
 nod166: x[102] + x[89] + x[150] + x[114] + x[68] + x[18] + x[37] + x[165]
   + x[96] + x[16] + 8 x[166] + x[17] + x[123] + x[85] <= 8
 nod104: x[102] + x[150] + x[22] + x[153] + x[66] + x[170] + x[48] + x[84]
   + x[146] + x[32] + x[61] + x[26] + x[168] + x[54] + x[16] + 10 x[104]
   + x[127] + x[70] + x[100] + x[132] <= 10
 nod47: x[83] + x[150] + x[120] + x[156] + x[49] + x[114] + x[128] + x[121]
   + x[146] + x[34] + x[57] + x[67] + x[96] + x[54] + x[62] + x[16]
   + 12 x[47] + x[90] + x[125] + x[60] + x[41] + x[175] + x[119] <= 12
 nod53: x[59] + x[149] + x[26] + x[65] + x[21] + x[16] + 8 x[53] + x[98]
   + x[134] + x[136] + x[36] + x[175] <= 8
 nod90: x[156] + x[45] + x[20] + x[122] + x[130] + x[40] + x[18] + x[159]
   + x[72] + x[84] + x[155] + x[146] + x[34] + x[73] + x[67] + x[131]
   + x[52] + x[111] + x[19] + x[148] + x[164] + x[16] + x[47] + 15 x[90]
   + x[158] + x[70] + x[140] + x[80] + x[85] <= 15
 nod125: x[108] + x[117] + x[126] + x[145] + x[116] + x[165] + x[137]
   + x[124] + x[144] + x[96] + x[111] + x[148] + x[92] + x[86] + x[16]
   + x[47] + 12 x[125] + x[135] + x[158] + x[80] + x[36] <= 12
 nod127: x[106] + x[83] + x[40] + x[84] + x[167] + x[141] + x[81] + x[149]
   + x[124] + x[131] + x[52] + x[29] + x[164] + x[168] + x[16] + x[104]
   + 13 x[127] + x[17] + x[50] + x[105] + x[36] + x[41] + x[51] + x[75]
   <= 13
 nod17: x[102] + x[106] + x[153] + x[94] + x[130] + x[78] + x[69] + x[44]
   + x[155] + x[165] + x[32] + x[34] + x[76] + x[164] + x[168] + x[21]
   + x[166] + x[127] + 13 x[17] + x[135] + x[50] + x[158] <= 13
 nod135: x[108] + x[126] + x[20] + x[59] + x[122] + x[94] + x[114] + x[165]
   + x[137] + x[57] + x[67] + x[19] + x[87] + x[26] + x[62] + x[125]
   + x[17] + 11 x[135] + x[80] + x[175] <= 11
 nod50: x[108] + x[172] + x[126] + x[174] + x[77] + x[25] + x[107] + x[84]
   + x[141] + x[34] + x[169] + x[63] + x[71] + x[115] + x[127] + x[17]
   + 10 x[50] + x[70] <= 10
 nod158: x[23] + x[126] + x[33] + x[39] + x[114] + x[37] + x[149] + x[63]
   + x[82] + x[133] + x[90] + x[125] + x[17] + 11 x[158] <= 11
 nod98: x[33] + x[93] + x[49] + x[78] + x[18] + x[142] + x[69] + x[57]
   + x[169] + x[111] + x[63] + x[30] + x[71] + x[133] + x[53] + 11 x[98]
   + x[140] <= 11
 nod70: x[106] + x[22] + x[23] + x[126] + x[24] + x[88] + x[94] + x[130]
   + x[77] + x[18] + x[116] + x[81] + x[57] + x[171] + x[76] + x[54]
   + x[104] + x[90] + x[50] + 13 x[70] + x[112] + x[175] + x[163] <= 13
 nod35: x[117] + x[64] + x[109] + x[20] + x[94] + x[114] + x[169] + x[19]
   + x[62] + 8 x[35] <= 8
 nod140: x[89] + x[83] + x[150] + x[22] + x[33] + x[151] + x[88] + x[27]
   + x[38] + x[84] + x[44] + x[144] + x[19] + x[26] + x[63] + x[168]
   + x[42] + x[115] + x[90] + x[98] + 13 x[140] + x[41] + x[74] <= 13
 nod80: x[154] + x[45] + x[88] + x[40] + x[99] + x[129] + x[113] + x[147]
   + x[149] + x[137] + x[96] + x[19] + x[29] + x[90] + x[125] + x[135]
   + 11 x[80] + x[55] + x[79] <= 11
 nod55: x[117] + x[120] + x[39] + x[109] + x[122] + x[34] + x[19] + x[63]
   + x[97] + x[65] + x[21] + x[80] + 10 x[55] + x[112] + x[41] + x[100]
   <= 10
 nod112: x[172] + x[117] + x[23] + x[24] + x[109] + x[20] + x[151] + x[122]
   + x[40] + x[170] + x[44] + x[96] + x[111] + x[148] + x[29] + x[63]
   + x[71] + x[76] + x[65] + x[133] + x[70] + x[55] + 13 x[112] + x[75]
   <= 13
 nod123: x[89] + x[150] + x[22] + x[64] + x[20] + x[38] + x[72] + x[28]
   + x[44] + x[57] + x[139] + x[166] + 7 x[123] <= 7
 nod134: x[130] + x[142] + x[128] + x[91] + x[141] + x[147] + x[137]
   + x[148] + x[65] + x[21] + x[53] + 10 x[134] + x[175] + x[152] <= 10
 nod60: x[89] + x[83] + x[150] + x[117] + x[156] + x[33] + x[27] + x[101]
   + x[146] + x[87] + x[164] + x[21] + x[47] + 9 x[60] <= 9
 nod105: x[102] + x[108] + x[150] + x[117] + x[24] + x[151] + x[40]
   + x[159] + x[91] + x[44] + x[95] + x[32] + x[73] + x[147] + x[52]
   + x[63] + x[42] + x[21] + x[127] + 12 x[105] + x[136] + x[152] <= 12
 nod136: x[83] + x[150] + x[22] + x[154] + x[64] + x[93] + x[39] + x[59]
   + x[27] + x[170] + x[68] + x[72] + x[101] + x[113] + x[155] + x[95]
   + x[137] + x[103] + x[111] + x[97] + x[157] + x[53] + x[105] + 16 x[136]
   <= 16
 nod85: x[108] + x[89] + x[24] + x[49] + x[130] + x[114] + x[143] + x[34]
   + x[73] + x[131] + x[111] + x[166] + x[90] + 9 x[85] <= 9
 nod79: x[108] + x[117] + x[156] + x[66] + x[27] + x[170] + x[68] + x[78]
   + x[25] + x[165] + x[147] + x[124] + x[169] + x[97] + x[76] + x[164]
   + x[80] + 12 x[79] <= 12
 nod36: x[173] + x[156] + x[93] + x[49] + x[122] + x[43] + x[81] + x[57]
   + x[87] + x[26] + x[171] + x[30] + x[76] + x[62] + x[53] + x[125]
   + x[127] + 12 x[36] + x[175] <= 12
 nod41: x[31] + x[77] + x[121] + x[165] + x[137] + x[67] + x[96] + x[26]
   + x[29] + x[171] + x[58] + x[47] + x[127] + x[140] + x[55] + 9 x[41]
   + x[100] <= 9
 nod51: x[117] + x[154] + x[33] + x[81] + x[144] + x[26] + x[42] + x[65]
   + x[54] + x[127] + 8 x[51] + x[175] + x[152] <= 8
 nod138: x[172] + x[110] + x[31] + x[39] + x[45] + x[37] + x[28] + x[146]
   + x[32] + x[81] + x[57] + x[67] + x[144] + x[131] + x[61] + x[56]
   + x[54] + 10 x[138] <= 10
 nod175: x[107] + x[28] + x[113] + x[146] + x[103] + x[82] + x[42] + x[133]
   + x[47] + x[53] + x[135] + x[70] + x[134] + x[36] + x[51] + 11 x[175]
   <= 11
 nod75: x[153] + x[126] + x[174] + x[122] + x[114] + x[142] + x[129]
   + x[73] + x[81] + x[96] + x[148] + x[29] + x[171] + x[58] + x[115]
   + x[133] + x[127] + x[112] + 12 x[75] + x[100] + x[132] <= 12
 nod119: x[106] + x[172] + x[174] + x[142] + x[37] + x[113] + x[146]
   + x[137] + x[148] + x[171] + x[168] + x[47] + 10 x[119] <= 10
 nod74: x[110] + x[150] + x[153] + x[64] + x[174] + x[122] + x[40] + x[142]
   + x[155] + x[165] + x[146] + x[124] + x[76] + x[62] + x[115] + x[86]
   + x[140] + 12 x[74] + x[163] <= 12
 nod100: x[66] + x[40] + x[159] + x[167] + x[162] + x[63] + x[97] + x[139]
   + x[92] + x[104] + x[55] + x[41] + x[75] + 10 x[100] + x[132] <= 10
 nod152: x[150] + x[156] + x[151] + x[143] + x[72] + x[58] + x[46] + x[134]
   + x[105] + x[51] + 7 x[152] <= 7
 nod132: x[154] + x[109] + x[49] + x[143] + x[159] + x[99] + x[72] + x[141]
   + x[155] + x[73] + x[104] + x[75] + x[100] + 8 x[132] <= 8
 nod163: x[89] + x[88] + x[94] + x[77] + x[68] + x[78] + x[84] + x[129]
   + x[95] + x[149] + x[76] + x[92] + x[62] + x[70] + x[74] + 10 x[163]
   <= 10
Bounds
Binaries
 x[1] x[4] x[5] x[102] x[108] x[106] x[172] x[173] x[110] x[89] x[83]
 x[150] x[117] x[22] x[23] x[120] x[153] x[154] x[156] x[126] x[31] x[2]
 x[64] x[33] x[93] x[39] x[24] x[109] x[174] x[45] x[145] x[20] x[151]
 x[88] x[49] x[59] x[122] x[94] x[3] x[66] x[27] x[130] x[40] x[170] x[12]
 x[13] x[77] x[48] x[114] x[143] x[68] x[38] x[6] x[9] x[78] x[15] x[18]
 x[142] x[25] x[159] x[128] x[99] x[37] x[8] x[107] x[72] x[84] x[91] x[69]
 x[129] x[101] x[167] x[28] x[43] x[44] x[141] x[113] x[116] x[121] x[155]
 x[95] x[7] x[165] x[146] x[32] x[161] x[34] x[73] x[14] x[81] x[147]
 x[149] x[137] x[57] x[124] x[67] x[103] x[144] x[131] x[52] x[61] x[10]
 x[96] x[162] x[169] x[111] x[19] x[148] x[87] x[26] x[29] x[63] x[11]
 x[171] x[82] x[118] x[58] x[30] x[97] x[71] x[76] x[56] x[164] x[168]
 x[42] x[139] x[92] x[65] x[46] x[157] x[21] x[54] x[62] x[115] x[86] x[16]
 x[160] x[133] x[166] x[104] x[47] x[53] x[90] x[125] x[127] x[17] x[135]
 x[50] x[158] x[98] x[70] x[35] x[140] x[80] x[55] x[112] x[123] x[134]
 x[60] x[105] x[136] x[85] x[79] x[36] x[41] x[51] x[138] x[175] x[75]
 x[119] x[74] x[100] x[152] x[132] x[163]
End
